Problem:    Incendi
Rows:       31
Columns:    31 (20 integer, 20 binary)
Non-zeros:  81
Status:     INTEGER OPTIMAL
Objective:  z = 10.4 (MINimum)

   No.   Row name        Activity     Lower bound   Upper bound
------ ------------    ------------- ------------- -------------
     1 def_startTime[1,2]
                                   0            -0               
     2 def_startTime[1,3]
                                   0            -0               
     3 def_startTime[1,4]
                                   0            -0               
     4 def_startTime[1,5]
                                   0            -0               
     5 def_startTime[2,1]
                                 2.4            -0               
     6 def_startTime[2,3]
                                 2.4            -0               
     7 def_startTime[2,4]
                                 2.4            -0               
     8 def_startTime[2,5]
                                 2.4            -0               
     9 def_startTime[3,1]
                                10.4            -0               
    10 def_startTime[3,2]
                                10.4            -0               
    11 def_startTime[3,4]
                                10.4            -0               
    12 def_startTime[3,5]
                                10.4            -0               
    13 def_startTime[4,1]
                                 7.6            -0               
    14 def_startTime[4,2]
                                 7.6            -0               
    15 def_startTime[4,3]
                                 7.6            -0               
    16 def_startTime[4,5]
                                 7.6            -0               
    17 def_startTime[5,1]
                                   0            -0               
    18 def_startTime[5,2]
                                   0            -0               
    19 def_startTime[5,3]
                                   0            -0               
    20 def_startTime[5,4]
                                   0            -0               
    21 def_timeMax[1]
                             4.84444            -0               
    22 def_timeMax[2]
                                   0            -0               
    23 def_timeMax[3]
                                   0            -0               
    24 def_timeMax[4]
                                   0            -0               
    25 def_timeMax[5]
                             2.73333            -0               
    26 def_d[1]                    5             5             = 
    27 def_d[2]                    8             8             = 
    28 def_d[3]                 10.4          10.4             = 
    29 def_d[4]                    9             9             = 
    30 def_d[5]                  4.6           4.6             = 
    31 z                        10.4                             

   No. Column name       Activity     Lower bound   Upper bound
------ ------------    ------------- ------------- -------------
     1 x[1,2]       *              0             0             1 
     2 x[1,3]       *              0             0             1 
     3 x[1,4]       *              0             0             1 
     4 x[1,5]       *              0             0             1 
     5 x[2,1]       *              0             0             1 
     6 x[2,3]       *              0             0             1 
     7 x[2,4]       *              0             0             1 
     8 x[2,5]       *              0             0             1 
     9 x[3,1]       *              0             0             1 
    10 x[3,2]       *              0             0             1 
    11 x[3,4]       *              0             0             1 
    12 x[3,5]       *              0             0             1 
    13 x[4,1]       *              0             0             1 
    14 x[4,2]       *              0             0             1 
    15 x[4,3]       *              0             0             1 
    16 x[4,5]       *              0             0             1 
    17 x[5,1]       *              0             0             1 
    18 x[5,2]       *              0             0             1 
    19 x[5,3]       *              0             0             1 
    20 x[5,4]       *              0             0             1 
    21 startTime[1]          5.55556             0               
    22 startTime[2]                8             0               
    23 startTime[3]                0             0               
    24 startTime[4]              2.8             0               
    25 startTime[5]          7.66667             0               
    26 endTime[1]            5.55556             0               
    27 endTime[2]               10.4             0               
    28 endTime[3]               10.4             0               
    29 endTime[4]               10.4             0               
    30 endTime[5]            7.66667             0               
    31 timeMax                  10.4             0               

Integer feasibility conditions:

KKT.PE: max.abs.err = 0.00e+000 on row 0
        max.rel.err = 0.00e+000 on row 0
        High quality

KKT.PB: max.abs.err = 0.00e+000 on row 0
        max.rel.err = 0.00e+000 on row 0
        High quality

End of output
